;ID	DIP	DipDir	weight
1	44.533	195.3	1.52
2	55.795	218.98	2.49
3	56.963	209.31	2.34
4	40.202	344.11	1.61
5	18.688	98.29	1
6	77.365	295.8	5.76
7	84.337	237.87	5.76
8	61.177	290.59	5.76
9	38.481	108.53	1.06
10	54.472	97.35	1.23
11	66.587	288.12	5.76
12	42.269	126.88	1.11
13	84.769	161.64	4
14	38.166	103.2	1.06
15	83.972	180.02	5.76
16	61.022	243.19	4.32
17	20.459	309.12	1.28
18	58.456	86.69	1.31
19	34.258	57.97	1.09
20	17.871	155.54	1.04
21	23.523	130.66	1.02
22	37.499	132.24	1.08
23	12.778	6.83	1.09
24	19.138	2.76	1.14
25	89.283	162.09	5.72
26	41.825	124.06	1.1
27	62.472	286.17	5.76
28	8.458	73.17	1.02
29	20.457	102.92	1
30	28.938	116.13	1.02
31	20.267	104.01	1
32	74.975	134.97	1.96
33	67.661	204.04	3.4
34	56.605	285.25	4.08
35	41.946	97.14	1.08
36	41.389	90.21	1.08
37	40.691	94.47	1.08
38	33.275	95.56	1.03
39	29.772	97.73	1.02
40	44.386	174.12	1.34
41	53.636	161.65	1.44
42	89.179	98.06	2.92
43	54.681	154.55	1.41
44	49.097	97.84	1.15
45	17.625	166.32	1.06
46	51.645	351.62	2.01
47	71.824	190.52	3.32
48	79.361	138.75	2.31
49	42.957	43	1.24
50	67.292	282.81	5.76
51	59.109	80.45	1.34
52	73.098	118.67	1.73
53	57.305	113.46	1.28
54	62.476	293.97	5.76
55	57.059	104.58	1.26
56	51.071	105.04	1.18
57	44.738	112.72	1.11
58	81.567	168.79	3.76
59	44.136	162.17	1.26
60	55.769	230.03	2.77
61	65.376	212.96	3.53
62	64.856	218.35	3.76
63	19.119	317.89	1.24
64	58.623	47.13	1.52
65	48.726	54	1.26
66	67.733	19.85	2.49
67	34.561	117.48	1.04
68	68.601	90.93	1.54
69	23.443	279.81	1.37
70	17.943	287.44	1.26
71	21.006	286.95	1.31
72	18.058	261.84	1.25
73	7.663	295.24	1.12
74	72.747	88.03	1.7
75	43.797	58.82	1.18
76	23.046	152.82	1.05
77	8.085	337.15	1.1
78	5.55	294.66	1.1
79	53.881	104.98	1.21
80	48.013	111.18	1.14
81	34.042	85.88	1.04
82	44.394	103.28	1.1
83	43.283	122.95	1.11
84	72.169	19.06	3.02
85	65.01	171.53	1.99
86	9.221	257.27	1.13
87	10.609	150.85	1.03
88	7.931	150.47	1.04
89	44.381	104.48	1.1
90	38.906	336.95	1.63
91	26.556	188.8	1.18
92	29.101	45.49	1.09
93	31.564	24.2	1.19
94	68.729	81.76	1.58
95	19.658	105.22	1
96	38.014	88.05	1.06
97	64.13	202.25	2.82
98	62.188	202.54	2.61
99	51.17	67.87	1.24
100	77.294	106.7	1.88
101	36.519	127.59	1.07
102	58.461	260.84	4.41
103	60.531	280.39	5.76
104	26.957	89.55	1.01
105	57.754	85.27	1.29
106	24.505	74.27	1.02
107	39.992	105.96	1.07
108	46.449	100.96	1.12
109	44.565	146.49	1.19
110	38.785	95.76	1.06
111	56.435	21.98	1.75
112	89.318	284.45	3.11
113	50.532	16.53	1.61
114	37.801	103.71	1.05
115	73.586	8.02	4.06
116	23.709	105.08	1
117	34.751	106.81	1.04
118	18.191	101.42	1
119	76.088	160.91	2.55
120	5.207	159.31	1.05
121	68.35	142.37	1.72
122	64.633	135.93	1.53
123	25.49	130.72	1.02
124	46.9	154.6	1.26
125	11.017	39.09	1.05
126	58.588	165.93	1.63
127	37.749	49.72	1.15
128	21.878	125.85	1.01
129	19.769	109.17	1
130	85.493	271.99	3.98
131	82.422	101.7	2.21
132	19.628	309.86	1.26
133	58.556	122.05	1.32
134	61.174	111.65	1.35
135	40.606	277.73	1.99
136	69.763	108.31	1.57
137	73.631	105.11	1.72
138	26.329	302.7	1.41
139	25.905	276.85	1.42
140	57.051	112	1.27
141	30.154	324.09	1.44
142	65.674	105.73	1.45
143	28.289	259.94	1.46
144	22.33	259	1.32
145	65.247	37.55	1.9
146	69.831	105.88	1.58
147	69.369	102.59	1.56
148	69.179	94.39	1.56
149	68.314	89.54	1.54
150	70.87	104.29	1.61
151	68.849	101.01	1.54
152	72.165	108.54	1.66
153	71.777	96.86	1.64
154	30.916	259.45	1.53
155	55.673	94.77	1.24
156	52.406	26.61	1.56
157	48.041	293.18	2.57
158	53.924	77.45	1.25
159	43.125	359.24	1.57
160	78.805	261.8	5.76
161	36.624	72.41	1.08
162	57.634	162.92	1.56
163	67.398	164.18	1.98
164	59.086	76.19	1.35
165	52.113	72.82	1.24
166	10.201	322.02	1.13
167	32.906	263.27	1.61
168	60.537	85.42	1.35
169	71.329	68.99	1.77
170	2.196	43.05	1.05
171	24.097	263.71	1.37
172	35.018	328.97	1.56
173	22.326	206.46	1.19
174	28.277	186.94	1.18
175	23.631	290.8	1.37
176	9.652	143.76	1.03
177	15.611	101.08	1
178	61.58	100.02	1.35
179	83.508	264.61	4.82
180	71.22	110.66	1.63
181	79.348	172.83	3.53
182	73.269	64.09	1.92
183	77.97	45.49	2.67
184	25.021	150.12	1.05
185	44.296	81.04	1.12
186	15.637	156.24	1.04
187	14.245	162.19	1.05
188	89.023	269.01	3.25
189	72.945	166.43	2.41
190	33.945	95.04	1.03
191	65.146	97.57	1.43
192	55.195	344.72	2.43
193	55.387	108.74	1.24
194	88.543	268.96	3.34
195	27.466	272.87	1.46
196	37.305	14.38	1.32
197	49.325	87.77	1.16
198	39.862	187.97	1.35
199	14.45	176.66	1.07
200	69.658	74.04	1.66
201	69.998	58.72	1.82
202	28.133	105.12	1.01
203	70.987	204.97	4.17
204	26.619	319.55	1.38
205	58.274	135.69	1.37
206	31.472	109.96	1.02
207	35.039	137.3	1.08
208	16.025	55.6	1.03
209	35.423	102.18	1.04
210	37.441	40.01	1.19
211	51.49	53.51	1.32
212	89.621	274.24	3.11
213	89.88	233.46	4.68
214	49.586	60.85	1.25
215	49.37	259.51	2.61
216	23.07	100.34	1
217	28.179	58.02	1.06
218	50.214	100.17	1.16
219	64.012	46.08	1.73
220	77.965	129.37	2.05
221	51.104	57.47	1.29
222	56.964	52.86	1.44
223	75.226	168.83	2.69
224	89.854	108.54	3
225	35.312	98.13	1.04
226	48.334	100.95	1.14
227	65.787	133.04	1.54
228	12.636	177.74	1.06
229	15.399	143.45	1.02
230	36.423	91.34	1.05
231	47.226	97.2	1.13
232	64.086	75.75	1.47
233	57.106	99.31	1.26
234	51.924	87.03	1.2
235	45.489	24.53	1.41
236	51.449	90.66	1.19
237	79.564	98.58	2.01
238	45.121	262.61	2.25
239	75.606	83.12	1.86
240	41.114	102.46	1.08
241	27.448	341.57	1.32
242	33.115	151.36	1.1
243	63.213	193.57	2.37
244	35.323	107.35	1.04
245	55.898	105.94	1.24
246	71.925	169.85	2.4
247	72.395	163.99	2.28
248	13.898	317.65	1.18
249	8.326	299.2	1.13
250	29.893	331.71	1.41
251	22.556	267.43	1.34
252	86.774	138.84	3.11
253	68.988	175.95	2.33
254	71.13	112.29	1.63
255	74.392	115.95	1.77
256	64.092	114.94	1.42
257	47.317	103.16	1.13
258	46.1	110.06	1.12
259	44.157	107.99	1.1
260	63.847	107.07	1.4
261	30.61	102.8	1.02
262	48.169	87.39	1.15
263	54.176	151.03	1.37
264	23.068	129.25	1.02
265	28.982	76.76	1.03
266	61.065	91.74	1.35
267	65.041	47	1.77
268	65.216	167.53	1.9
269	32.427	86.63	1.03
270	22.892	69.64	1.02
271	74.29	94.85	1.75
272	23.092	101.53	1
273	29.364	11.23	1.23
274	75.498	111.97	1.81
275	47.475	40.45	1.34
276	22.533	61.85	1.03
277	47.229	91.82	1.14
278	16.597	250.31	1.21
279	56.259	82.8	1.28
280	27.974	278.69	1.47
281	62.707	171.52	1.84
282	10.146	207.32	1.09
283	13.797	231.87	1.15
284	20.315	159.4	1.05
285	12.91	159.31	1.04
286	7.87	230.65	1.1
287	19.036	25.6	1.09
288	17.45	26.22	1.08
289	14.821	48.83	1.04
290	23.098	38.06	1.08
291	10.199	323.32	1.13
292	7.08	287.09	1.12
293	16.901	310.04	1.23
294	13.655	325.65	1.16
295	27.815	357.14	1.26
296	15.669	333.12	1.18
297	14.185	281.24	1.2
298	18.713	268.1	1.26
299	34.12	353.32	1.4
300	30.678	282.02	1.56
301	18.463	348.44	1.18
302	19.397	103.55	5.76
303	49.705	263.94	2.69
304	28.691	94.1	1.02
305	60.712	173.85	1.79
306	7.354	4.93	1.08
307	47.817	106.86	1.14
308	13.312	22.07	1.08
309	83.659	52.05	3.23
310	67.958	186.56	2.55
311	80.187	17.26	5.53
312	49.468	259.23	2.61
313	43.838	103.81	1.1
314	52.757	111.43	1.2
315	65.467	47.48	1.79
316	11.441	5.32	1.09
317	53.95	8.93	1.88
318	30.127	279.35	1.54
319	21.515	273.19	1.32
320	35.514	103.94	1.04
321	33.046	100.06	1.03
322	29.523	149.22	1.07
323	89.931	49.55	5.12
324	26.194	113.04	1.01
325	22.52	261.21	1.33
326	63.529	25.16	2.09
327	50.19	109.94	1.16
328	37.902	289.43	1.85
329	65.988	111.91	1.46
330	52.768	29.56	1.56
331	2.212	283.94	1.08
332	28.862	81.03	1.03
333	53.876	108.13	1.21
334	47.303	110.75	1.13
335	45.159	199.21	1.56
336	51.009	94.98	1.18
337	57.774	49.6	1.5
338	35.13	87.02	1.05
339	48.647	94.66	1.15
340	37.605	96.06	1.05
341	30.757	107.16	1.02
342	46.249	95.62	1.12
343	39.086	103.74	1.06
344	11.507	66.48	1.02
345	46.305	183.68	1.44
346	44.663	137.21	1.15
347	40.642	108.66	1.07
348	63.152	178.1	1.98
349	44.473	187.97	1.44
350	31.312	184.37	1.2
351	60.071	99.02	1.32
352	59.621	103.77	1.31
353	25.307	290.38	1.41
354	38.614	49.54	1.16
355	50.748	91	1.18
356	36.835	352.23	1.47
357	37.344	110.18	1.05
358	47.677	100.6	1.13
359	88.396	179.47	5.76
360	22.783	268.34	1.35
361	39.357	67.52	1.11
362	41.869	258.78	2.01
363	16.231	349.28	1.16
364	44.433	272.44	2.27
365	61.984	357.34	2.8
366	8.397	50.75	1.04
367	3.019	21.49	1.06
368	10.135	91.01	1.02
369	27.489	350.55	1.29
370	5.592	60.56	1.04
371	8.997	12.76	1.08
372	18.879	330.47	1.23
373	15.534	23.2	1.08
374	4.363	335.19	1.08
375	25.146	332.08	1.32
376	29.674	16.13	1.21
377	64.759	23.6	2.21
378	61.674	0.88	2.63
379	6.682	2.27	1.08
380	79.831	107.44	2.01
381	25.006	275.48	1.4
382	54.765	88.23	1.24
383	53.534	96.87	1.21
384	50.344	98.87	1.16
385	11.85	193.86	1.08
386	34.001	145.12	1.08
387	38.699	178.59	1.26
388	50.976	55.28	1.31
389	55.184	94.01	1.24
390	26.845	275.8	1.45
391	51.671	98.79	1.18
392	57.809	98.38	1.27
393	31.427	306.31	1.56
394	79.17	88.3	2.02
395	65.913	174.34	2.05
396	60.454	73.65	1.4
397	56.233	278.12	4.06
398	36.551	174.09	1.21
399	34.637	329.6	1.56
400	36.194	8.28	1.35
401	20.472	285.83	1.31
402	46.933	166.33	1.32
403	12.615	20.35	1.08
404	24.387	358.82	1.22
405	77.525	77.66	2.01
406	15.375	2.9	1.12
407	71.733	45.46	2.17
408	9.103	48.59	1.04
409	83.535	246.38	5.76
410	2.642	151.5	1.05
411	21.797	197.91	1.15
412	17.032	173.26	1.07
413	18.352	41.48	1.06
414	10.355	284.22	1.15
415	58.373	100.49	1.28
416	58.941	91.94	1.31
417	55.901	96.95	1.25
418	80.874	34.28	3.81
419	40.018	163.03	1.2
420	69.89	112.45	1.58
421	59.239	95.74	1.31
422	88.066	91.24	2.8
423	13.19	332.63	1.15
424	18.725	328.96	1.23
425	67.455	116.56	1.51
426	57.638	96.86	1.27
427	61.341	187.38	2.05
428	86.406	159.69	4.02
429	11.576	300.69	1.16
430	60.566	183.83	1.94
431	27.398	266.21	1.45
432	63.716	100.46	1.4
433	87.731	46.54	4.64
434	69.78	171.28	2.23
435	85.383	108.04	2.45
436	86.508	55.03	3.64
437	13.039	302.6	1.18
438	22.548	357.97	1.2
439	31.044	208.54	1.31
440	76.649	107.01	1.84
441	20.42	103.78	1
442	50.993	126.31	1.2
443	41.03	203.07	1.47
444	45.873	194.48	1.52
445	65.358	74.45	1.52
446	37.52	176.76	1.24
447	60.198	178.53	1.82
448	61.017	103.69	1.34
449	45.164	8.95	1.56
450	7.767	81.34	1.03
451	69.886	107.58	1.57
452	20.381	247.5	1.26
453	30.404	210.8	1.31
454	5.825	104.47	1.03
455	30.234	320.97	1.47
456	62.093	173.29	1.82
457	56.992	180.17	1.72
458	22.942	31.91	1.1
459	70.685	115.32	1.61
460	16.406	35.3	1.07
461	80.92	167.37	3.34
462	80.96	105.73	2.09
463	47.708	117.55	1.14
464	44.4	125.89	1.12
465	10.88	291.45	1.16
466	89.584	242.24	4.17
467	87.082	99.14	2.63
468	28.511	165.61	1.1
469	72.5	107.25	1.66
470	39.954	120.43	1.08
471	8.413	317.32	1.12
472	79.018	289.78	5.76
473	51.413	112.51	1.18
474	80.537	278.78	5.76
475	73.644	355.97	5.76
476	10.78	356.97	1.1
477	81.077	57.88	2.69
478	7.341	202.79	1.08
479	15.084	140.49	1.02
480	83.503	100.3	2.29
481	3.309	284.82	1.08
482	22.212	316.55	1.31
483	32.675	146.02	1.08
484	21.255	43.16	1.07
485	88.539	104.81	2.8
486	48.418	102.22	1.14
487	85.139	101.14	2.43
488	12.918	338.99	1.14
489	35.592	297.48	1.73
490	38.153	293	1.86
491	18.42	53.56	1.04
492	62.51	117.15	1.38
493	41.343	109.79	1.08
494	65.998	184.64	2.29
495	50.64	329.87	2.41
496	51.512	324.73	2.59
497	57.407	324.23	3.44
498	58.954	332.88	3.39
499	58.274	341.92	2.93
500	54.973	332.7	2.8
501	57.681	338.16	2.98
502	58.035	357.68	2.41
503	57.689	335.86	3.07
504	63.912	181.77	2.07
505	27.534	305.02	1.45
506	15.729	266.04	1.22
507	19.694	261.16	1.27
508	17.79	2.21	1.14
509	11.375	301.54	1.16
510	30.879	321.05	1.49
511	86.638	90.25	2.65
512	83.738	100.56	2.31
513	27.332	339.49	1.34
514	40.963	29.31	1.31
515	59.752	357.21	2.59
516	22.927	351.38	1.23
517	43.187	341.04	1.79
518	86.649	290.9	3.61
519	88.173	58.27	3.87
520	24.804	60.92	1.05
521	49.105	74.4	1.2
522	15.985	109.77	1
523	25.768	101.16	1.01
524	62.266	62.98	1.52
525	30.58	110.02	1.02
526	12.989	192.2	1.08
527	81.892	112.25	2.17
528	83.901	112.35	2.33
529	80.629	107.76	2.07
530	30.895	298.64	1.56
531	8.858	205.61	1.08
532	14.493	354.69	1.13
533	62.513	89.43	1.39
534	17.632	287.68	1.25
535	64.163	90.21	1.43
536	19.445	268.14	1.28
537	23.537	274.91	1.37
538	53.953	79.93	1.25
539	87.838	107.52	2.71
540	39.04	275.15	1.9
541	28.532	141.97	1.05
542	14.367	178.68	1.07
543	29.248	191.52	1.2
544	21.712	149.65	1.04
545	34.655	130.29	1.06
546	26.853	155.63	1.07
547	20.31	129.78	1.01
548	13.481	184.11	1.07
549	32.265	185.61	1.21
550	52.258	212.32	1.99
551	48.009	205.28	1.7
552	67.39	193.81	2.69
553	33.146	314.87	1.58
554	48.949	252.64	2.44
555	48.631	200.4	1.66
556	88.799	299.19	3.28
557	56.301	205.95	2.11
558	72.604	177.85	2.63
559	30.433	25.25	1.19
560	45.156	260.24	2.22
561	46.136	255.29	2.25
562	23.458	58.68	1.05
563	42.303	20.73	1.4
564	44.312	155.71	1.21
565	88.337	277.18	3.3
566	15.296	38.05	1.06
567	40.674	107.89	1.07
568	46.51	105.79	1.12
569	63.494	227.62	3.81
570	48.973	203.47	1.71
571	53.265	222.22	2.25
572	61.834	4.9	2.57
573	54.095	20.94	1.73
574	48.062	300.01	2.57
575	60.099	260.83	4.82
576	31.355	146.9	1.07
577	22.168	103.96	1
578	66.602	20.45	2.51
579	42.938	109.63	1.09
580	62.719	354.53	3.09
581	54.613	197.84	1.86
582	56.381	108.87	1.25
583	83.238	344.78	5.76
584	68.593	337.04	5.76
585	79.269	207.25	5.76
586	45.979	317.79	2.21
587	49.643	323.49	2.44
588	89.77	119.35	3.06
589	45.668	87.06	1.13
590	56.438	43.96	1.54
591	72.414	196.28	3.51
592	43.14	152.26	1.18
593	52.352	111.54	1.19
594	35.779	121.64	1.05
595	49.306	196.43	1.63
596	82.813	92.69	2.29
597	46.915	120.08	1.14
598	54.607	358.18	2.16
599	1.359	150.24	1.05
600	38.139	58.29	1.14
601	68.393	130.1	1.59
602	80.575	133.52	2.26
603	71.588	153.74	1.97
604	71.713	151.39	1.94
605	38.949	23.58	1.31
606	49.461	163.41	1.34
607	42.488	169.79	1.26
608	23.969	245.63	1.31
609	47.03	211.48	1.72
610	45.423	167.81	1.29
611	40.043	54.47	1.17
612	46.473	263	2.31
613	40.738	207.14	1.48
614	63.004	16.17	2.32
615	67.637	179.74	2.26
616	68.435	189.08	2.61
617	61.564	166.75	1.7
618	66.52	196.89	2.69
619	20.69	129.94	1.01
620	24.113	121.63	1.01
621	25.276	142.85	1.03
622	58.685	76.06	1.37
